proyfinal/src/viki/013/andrea/andrea-localstore/experimentInOfficeAgust.take6/worker_4/978fb2be-3f94-4b85-9249-8ee026629c06.als.cnf.out
Reading from standard input... Use '--help' for help.
============================[ Problem Statistics ]=============================
|                                                                             |
|  Number of variables:         87638                                         |
|  Number of clauses:          161767                                         |
|  Parse time:                   0.03 s                                       |
|                                                                             |
============================[ Search Statistics ]==============================
| Conflicts |          ORIGINAL         |          LEARNT          | Progress |
|           |    Vars  Clauses Literals |    Limit  Clauses Lit/Cl |          |
===============================================================================
|       100 |   64033   111029   277459 |    40710      100     23 | 26.935 % |
|       250 |   64033   111029   277459 |    44781      250     32 | 26.935 % |
|       475 |   64033   111029   277459 |    49259      475     41 | 26.935 % |
|       812 |   64032   110985   277369 |    54185      811     42 | 26.936 % |
|      1318 |   54824    83322   209074 |    59604     1296     45 | 37.443 % |
|      2077 |   54823    83319   209068 |    65564     2054     45 | 37.444 % |
|      3216 |   54660    82680   207537 |    72121     3161     51 | 37.630 % |
|      4924 |   53170    77621   194447 |    79333     4481     55 | 39.330 % |
|      7486 |   53119    77431   193997 |    87266     7041     62 | 39.388 % |
|     11330 |   52936    76650   192125 |    95993     9924     60 | 39.597 % |
|     17096 |   52606    75292   188911 |   105592    14875     59 | 39.974 % |
===============================================================================
restarts              : 72
conflicts             : 20659          (8605 /sec)
decisions             : 62151          (0.00 % random) (25888 /sec)
propagations          : 24923851       (10381490 /sec)
conflict literals     : 1234105        (47.62 % deleted)
Memory used           : 36.87 MB
CPU time              : 2.4008 s

UNSATISFIABLE
